letting n =  10
letting blocks =  [[1, 1], [1, 2], [1, 3], [1, 5], [1, 7], [1, 8], [2, 1], [2, 2], [2, 6], [2, 8], [2, 9], [3, 1], [3, 3], [3, 4], [3, 5], [3, 7], [3, 8], [4, 1], [4, 2], [4, 5], [4, 9], [4, 10], [5, 2], [5, 3], [5, 6], [5, 8], [5, 9], [5, 10], [6, 1], [6, 2], [6, 3], [6, 4], [6, 9], [6, 10], [7, 1], [7, 3], [7, 4], [7, 6], [7, 7], [7, 10], [8, 4], [8, 5], [8, 6], [8, 7], [8, 10], [9, 2], [9, 4], [9, 6], [9, 7], [9, 8], [9, 10], [10, 3], [10, 4], [10, 7], [10, 8], [10, 9]]
